benchmark/results/graph__10-1000-0.10-03_10/error_log/graph__10-1000-0.10-03_10_Quinton_Benders_primal_sub_ERRORLOG.lp
\ This file has been generated by DOcplex
\ ENCODING=ISO-8859-1
\Problem name: Quinton Benders_primal_sub

Maximize
 obj: tau
Subject To
 c1: tau <= 0.001449275362
 c2: y_a0_proc_0 + y_a0_proc_1 + y_a0_proc_2 - tau = 0
 c3: y_a0_proc_0 <= 0
 c4: y_a0_proc_1 <= 1
 c5: y_a0_proc_2 <= 0
 c6: tau <= 0.000825763832
 c7: y_a1_proc_0 + y_a1_proc_1 + y_a1_proc_2 - tau = 0
 c8: y_a1_proc_0 <= 0
 c9: y_a1_proc_1 <= 1
 c10: y_a1_proc_2 <= 0
 c11: tau <= 0.000953288847
 c12: y_a2_proc_0 + y_a2_proc_1 + y_a2_proc_2 - tau = 0
 c13: y_a2_proc_0 <= 1
 c14: y_a2_proc_1 <= 0
 c15: y_a2_proc_2 <= 0
 c16: tau <= 0.000817661488
 c17: y_a3_proc_0 + y_a3_proc_1 + y_a3_proc_2 - tau = 0
 c18: y_a3_proc_0 <= 0
 c19: y_a3_proc_1 <= 0
 c20: y_a3_proc_2 <= 1
 c21: tau <= 0.001222493888
 c22: y_a4_proc_0 + y_a4_proc_1 - tau = 0
 c23: y_a4_proc_0 <= 1
 c24: y_a4_proc_1 <= 0
 c25: tau <= 0.001225490196
 c26: y_a5_proc_0 + y_a5_proc_1 + y_a5_proc_2 - tau = 0
 c27: y_a5_proc_0 <= 0
 c28: y_a5_proc_1 <= 0
 c29: y_a5_proc_2 <= 1
 c30: tau <= 0.001002004008
 c31: y_a6_proc_0 + y_a6_proc_1 + y_a6_proc_2 - tau = 0
 c32: y_a6_proc_0 <= 0
 c33: y_a6_proc_1 <= 1
 c34: y_a6_proc_2 <= 0
 c35: tau <= 0.001680672269
 c36: y_a7_proc_1 + y_a7_proc_2 - tau = 0
 c37: y_a7_proc_1 <= 0
 c38: y_a7_proc_2 <= 1
 c39: tau <= 0.001694915254
 c40: y_a8_proc_0 + y_a8_proc_1 + y_a8_proc_2 - tau = 0
 c41: y_a8_proc_0 <= 0
 c42: y_a8_proc_1 <= 1
 c43: y_a8_proc_2 <= 0
 c44: tau <= 0.000941619586
 c45: y_a9_proc_0 + y_a9_proc_1 - tau = 0
 c46: y_a9_proc_0 <= 1
 c47: y_a9_proc_1 <= 0
 c48: u_a0 - u_a1 - 978 y_a1_proc_0 - 1211 y_a1_proc_1 - 966 y_a1_proc_2 >= 0
 c49: u_a1 - u_a2 - 1049 y_a2_proc_0 - 986 y_a2_proc_1 - 956 y_a2_proc_2 >= 0
 c50: u_a3 - u_a1 - 978 y_a1_proc_0 - 1211 y_a1_proc_1 - 966 y_a1_proc_2 >= 0
 c51: u_a4 - u_a0 - 967 y_a0_proc_0 - 690 y_a0_proc_1 - 802 y_a0_proc_2 >= -1
 c52: u_a1 - u_a5 - 387 y_a5_proc_0 - 929 y_a5_proc_1 - 816 y_a5_proc_2 >= 0
 c53: u_a2 - u_a6 - 1256 y_a6_proc_0 - 998 y_a6_proc_1 - 118 y_a6_proc_2 >= 0
 c54: u_a7 - u_a4 - 818 y_a4_proc_0 - 865 y_a4_proc_1 >= -1
 c55: u_a5 - u_a8 - 830 y_a8_proc_0 - 590 y_a8_proc_1 - 987 y_a8_proc_2 >= 0
 c56: u_a9 - u_a7 - 835 y_a7_proc_1 - 595 y_a7_proc_2 >= 0
 c57: u_a7 - u_a3 - 1232 y_a3_proc_0 - 1199 y_a3_proc_1 - 1223 y_a3_proc_2 >= 
      -2
 c58: u_a2 - u_a8 - 830 y_a8_proc_0 - 590 y_a8_proc_1 - 987 y_a8_proc_2 >= 0
 c59: u_a2 - u_a9 - 1062 y_a9_proc_0 - 972 y_a9_proc_1 >= 0
 c60: u_a7 - u_a5 - 387 y_a5_proc_0 - 929 y_a5_proc_1 - 816 y_a5_proc_2 >= -1
 c61: u_a8 - u_a9 - 1062 y_a9_proc_0 - 972 y_a9_proc_1 >= 0
 c62: - 1062 y_a9_proc_0 - 972 y_a9_proc_1 >= -1
 c63: u_a1 - u_a0 - 802 y_a0_proc_2 >= -2513
 c64: u_a1 - u_a0 - 690 y_a0_proc_1 >= -1
 c65: u_a1 - u_a0 - 967 y_a0_proc_0 >= -2513
 c66: u_a0 - u_a1 - 966 y_a1_proc_2 >= -2512
 c67: u_a0 - u_a1 - 1211 y_a1_proc_1 >= 0
 c68: u_a0 - u_a1 - 978 y_a1_proc_0 >= -2512
 c69: u_a2 - u_a0 - 802 y_a0_proc_2 >= -3769
 c70: u_a2 - u_a0 - 690 y_a0_proc_1 >= -2513
 c71: u_a2 - u_a0 - 967 y_a0_proc_0 >= -2513
 c72: u_a0 - u_a2 - 956 y_a2_proc_2 >= -1256
 c73: u_a0 - u_a2 - 986 y_a2_proc_1 >= 0
 c74: u_a0 - u_a2 - 1049 y_a2_proc_0 >= 0
 c75: u_a3 - u_a0 - 802 y_a0_proc_2 >= -2511
 c76: u_a3 - u_a0 - 690 y_a0_proc_1 >= -2511
 c77: u_a3 - u_a0 - 967 y_a0_proc_0 >= -3767
 c78: u_a0 - u_a3 - 1223 y_a3_proc_2 >= -2
 c79: u_a0 - u_a3 - 1199 y_a3_proc_1 >= -2
 c80: u_a0 - u_a3 - 1232 y_a3_proc_0 >= -1258
 c81: u_a4 - u_a0 - 690 y_a0_proc_1 >= -2513
 c82: u_a4 - u_a0 - 967 y_a0_proc_0 >= -2513
 c83: u_a0 - u_a4 - 865 y_a4_proc_1 >= 0
 c84: u_a0 - u_a4 - 818 y_a4_proc_0 >= 0
 c85: u_a5 - u_a0 - 802 y_a0_proc_2 >= -1
 c86: u_a5 - u_a0 - 690 y_a0_proc_1 >= -1
 c87: u_a5 - u_a0 - 967 y_a0_proc_0 >= -1257
 c88: u_a0 - u_a5 - 816 y_a5_proc_2 >= -2512
 c89: u_a0 - u_a5 - 929 y_a5_proc_1 >= -2512
 c90: u_a0 - u_a5 - 387 y_a5_proc_0 >= -3768
 c91: u_a6 - u_a0 - 802 y_a0_proc_2 >= -1000001256
 c92: u_a6 - u_a0 - 690 y_a0_proc_1 >= -999998744
 c93: u_a6 - u_a0 - 967 y_a0_proc_0 >= -1000001256
 c94: u_a0 - u_a6 - 118 y_a6_proc_2 >= 999996231
 c95: u_a0 - u_a6 - 998 y_a6_proc_1 >= 999998743
 c96: u_a0 - u_a6 - 1256 y_a6_proc_0 >= 999996231
 c97: u_a7 - u_a0 - 802 y_a0_proc_2 >= -2513
 c98: u_a7 - u_a0 - 690 y_a0_proc_1 >= -2513
 c99: u_a0 - u_a7 - 595 y_a7_proc_2 >= 0
 c100: u_a0 - u_a7 - 835 y_a7_proc_1 >= 0
 c101: u_a8 - u_a0 - 802 y_a0_proc_2 >= -2513
 c102: u_a8 - u_a0 - 690 y_a0_proc_1 >= -1
 c103: u_a8 - u_a0 - 967 y_a0_proc_0 >= -2513
 c104: u_a0 - u_a8 - 987 y_a8_proc_2 >= -2512
 c105: u_a0 - u_a8 - 590 y_a8_proc_1 >= 0
 c106: u_a0 - u_a8 - 830 y_a8_proc_0 >= -2512
 c107: u_a9 - u_a0 - 690 y_a0_proc_1 >= -2513
 c108: u_a9 - u_a0 - 967 y_a0_proc_0 >= -2513
 c109: u_a0 - u_a9 - 972 y_a9_proc_1 >= 0
 c110: u_a0 - u_a9 - 1062 y_a9_proc_0 >= 0
 c111: u_a2 - u_a1 - 966 y_a1_proc_2 >= -3769
 c112: u_a2 - u_a1 - 1211 y_a1_proc_1 >= -2513
 c113: u_a2 - u_a1 - 978 y_a1_proc_0 >= -2513
 c114: u_a1 - u_a2 - 956 y_a2_proc_2 >= -1256
 c115: u_a1 - u_a2 - 986 y_a2_proc_1 >= 0
 c116: u_a1 - u_a2 - 1049 y_a2_proc_0 >= 0
 c117: u_a3 - u_a1 - 966 y_a1_proc_2 >= -2512
 c118: u_a3 - u_a1 - 1211 y_a1_proc_1 >= -2512
 c119: u_a3 - u_a1 - 978 y_a1_proc_0 >= -3768
 c120: u_a1 - u_a3 - 1223 y_a3_proc_2 >= -1
 c121: u_a1 - u_a3 - 1199 y_a3_proc_1 >= -1
 c122: u_a1 - u_a3 - 1232 y_a3_proc_0 >= -1257
 c123: u_a4 - u_a1 - 1211 y_a1_proc_1 >= -2513
 c124: u_a4 - u_a1 - 978 y_a1_proc_0 >= -2513
 c125: u_a1 - u_a4 - 865 y_a4_proc_1 >= 0
 c126: u_a1 - u_a4 - 818 y_a4_proc_0 >= 0
 c127: u_a5 - u_a1 - 966 y_a1_proc_2 >= -2513
 c128: u_a5 - u_a1 - 1211 y_a1_proc_1 >= -2513
 c129: u_a5 - u_a1 - 978 y_a1_proc_0 >= -3769
 c130: u_a1 - u_a5 - 816 y_a5_proc_2 >= 0
 c131: u_a1 - u_a5 - 929 y_a5_proc_1 >= 0
 c132: u_a1 - u_a5 - 387 y_a5_proc_0 >= -1256
 c133: u_a6 - u_a1 - 966 y_a1_proc_2 >= -1000001256
 c134: u_a6 - u_a1 - 1211 y_a1_proc_1 >= -999998744
 c135: u_a6 - u_a1 - 978 y_a1_proc_0 >= -1000001256
 c136: u_a1 - u_a6 - 118 y_a6_proc_2 >= 999996231
 c137: u_a1 - u_a6 - 998 y_a6_proc_1 >= 999998743
 c138: u_a1 - u_a6 - 1256 y_a6_proc_0 >= 999996231
 c139: u_a7 - u_a1 - 966 y_a1_proc_2 >= -2513
 c140: u_a7 - u_a1 - 1211 y_a1_proc_1 >= -2513
 c141: u_a1 - u_a7 - 595 y_a7_proc_2 >= 0
 c142: u_a1 - u_a7 - 835 y_a7_proc_1 >= 0
 c143: u_a8 - u_a1 - 966 y_a1_proc_2 >= -2513
 c144: u_a8 - u_a1 - 1211 y_a1_proc_1 >= -1
 c145: u_a8 - u_a1 - 978 y_a1_proc_0 >= -2513
 c146: u_a1 - u_a8 - 987 y_a8_proc_2 >= -2512
 c147: u_a1 - u_a8 - 590 y_a8_proc_1 >= 0
 c148: u_a1 - u_a8 - 830 y_a8_proc_0 >= -2512
 c149: u_a9 - u_a1 - 1211 y_a1_proc_1 >= -2513
 c150: u_a9 - u_a1 - 978 y_a1_proc_0 >= -2513
 c151: u_a1 - u_a9 - 972 y_a9_proc_1 >= 0
 c152: u_a1 - u_a9 - 1062 y_a9_proc_0 >= 0
 c153: u_a3 - u_a2 - 956 y_a2_proc_2 >= -2512
 c154: u_a3 - u_a2 - 986 y_a2_proc_1 >= -3768
 c155: u_a3 - u_a2 - 1049 y_a2_proc_0 >= -2512
 c156: u_a2 - u_a3 - 1223 y_a3_proc_2 >= -1
 c157: u_a2 - u_a3 - 1199 y_a3_proc_1 >= -1257
 c158: u_a2 - u_a3 - 1232 y_a3_proc_0 >= -1
 c159: u_a4 - u_a2 - 986 y_a2_proc_1 >= -2513
 c160: u_a4 - u_a2 - 1049 y_a2_proc_0 >= -1
 c161: u_a2 - u_a4 - 865 y_a4_proc_1 >= -2512
 c162: u_a2 - u_a4 - 818 y_a4_proc_0 >= 0
 c163: u_a5 - u_a2 - 956 y_a2_proc_2 >= -2512
 c164: u_a5 - u_a2 - 986 y_a2_proc_1 >= -3768
 c165: u_a5 - u_a2 - 1049 y_a2_proc_0 >= -2512
 c166: u_a2 - u_a5 - 816 y_a5_proc_2 >= -1
 c167: u_a2 - u_a5 - 929 y_a5_proc_1 >= -1257
 c168: u_a2 - u_a5 - 387 y_a5_proc_0 >= -1
 c169: u_a6 - u_a2 - 956 y_a2_proc_2 >= -1000002511
 c170: u_a6 - u_a2 - 986 y_a2_proc_1 >= -1000001255
 c171: u_a6 - u_a2 - 1049 y_a2_proc_0 >= -1000001255
 c172: u_a2 - u_a6 - 118 y_a6_proc_2 >= 999997486
 c173: u_a2 - u_a6 - 998 y_a6_proc_1 >= 999998742
 c174: u_a2 - u_a6 - 1256 y_a6_proc_0 >= 999998742
 c175: u_a7 - u_a2 - 956 y_a2_proc_2 >= -2513
 c176: u_a7 - u_a2 - 986 y_a2_proc_1 >= -3769
 c177: u_a2 - u_a7 - 595 y_a7_proc_2 >= 0
 c178: u_a2 - u_a7 - 835 y_a7_proc_1 >= -1256
 c179: u_a8 - u_a2 - 956 y_a2_proc_2 >= -3769
 c180: u_a8 - u_a2 - 986 y_a2_proc_1 >= -2513
 c181: u_a8 - u_a2 - 1049 y_a2_proc_0 >= -2513
 c182: u_a2 - u_a8 - 987 y_a8_proc_2 >= -1256
 c183: u_a2 - u_a8 - 590 y_a8_proc_1 >= 0
 c184: u_a2 - u_a8 - 830 y_a8_proc_0 >= 0
 c185: u_a9 - u_a2 - 986 y_a2_proc_1 >= -2513
 c186: u_a9 - u_a2 - 1049 y_a2_proc_0 >= -1
 c187: u_a2 - u_a9 - 972 y_a9_proc_1 >= -2512
 c188: u_a2 - u_a9 - 1062 y_a9_proc_0 >= 0
 c189: u_a4 - u_a3 - 1199 y_a3_proc_1 >= -3770
 c190: u_a4 - u_a3 - 1232 y_a3_proc_0 >= -2514
 c191: u_a3 - u_a4 - 865 y_a4_proc_1 >= -1255
 c192: u_a3 - u_a4 - 818 y_a4_proc_0 >= 1
 c193: u_a5 - u_a3 - 1223 y_a3_proc_2 >= -1
 c194: u_a5 - u_a3 - 1199 y_a3_proc_1 >= -2513
 c195: u_a5 - u_a3 - 1232 y_a3_proc_0 >= -2513
 c196: u_a3 - u_a5 - 816 y_a5_proc_2 >= 0
 c197: u_a3 - u_a5 - 929 y_a5_proc_1 >= -2512
 c198: u_a3 - u_a5 - 387 y_a5_proc_0 >= -2512
 c199: u_a6 - u_a3 - 1223 y_a3_proc_2 >= -1000001256
 c200: u_a6 - u_a3 - 1199 y_a3_proc_1 >= -1000001256
 c201: u_a6 - u_a3 - 1232 y_a3_proc_0 >= -1000002512
 c202: u_a3 - u_a6 - 118 y_a6_proc_2 >= 999998743
 c203: u_a3 - u_a6 - 998 y_a6_proc_1 >= 999998743
 c204: u_a3 - u_a6 - 1256 y_a6_proc_0 >= 999997487
 c205: u_a7 - u_a3 - 1223 y_a3_proc_2 >= -2
 c206: u_a7 - u_a3 - 1199 y_a3_proc_1 >= -2514
 c207: u_a3 - u_a7 - 595 y_a7_proc_2 >= 1
 c208: u_a3 - u_a7 - 835 y_a7_proc_1 >= -2511
 c209: u_a8 - u_a3 - 1223 y_a3_proc_2 >= -2514
 c210: u_a8 - u_a3 - 1199 y_a3_proc_1 >= -2514
 c211: u_a8 - u_a3 - 1232 y_a3_proc_0 >= -3770
 c212: u_a3 - u_a8 - 987 y_a8_proc_2 >= 1
 c213: u_a3 - u_a8 - 590 y_a8_proc_1 >= 1
 c214: u_a3 - u_a8 - 830 y_a8_proc_0 >= -1255
 c215: u_a9 - u_a3 - 1199 y_a3_proc_1 >= -3770
 c216: u_a9 - u_a3 - 1232 y_a3_proc_0 >= -2514
 c217: u_a3 - u_a9 - 972 y_a9_proc_1 >= -1255
 c218: u_a3 - u_a9 - 1062 y_a9_proc_0 >= 1
 c219: u_a5 - u_a4 - 865 y_a4_proc_1 >= -1256
 c220: u_a5 - u_a4 - 818 y_a4_proc_0 >= 0
 c221: u_a4 - u_a5 - 929 y_a5_proc_1 >= -3769
 c222: u_a4 - u_a5 - 387 y_a5_proc_0 >= -2513
 c223: u_a6 - u_a4 - 865 y_a4_proc_1 >= -1000001255
 c224: u_a6 - u_a4 - 818 y_a4_proc_0 >= -1000001255
 c225: u_a4 - u_a6 - 998 y_a6_proc_1 >= 999998742
 c226: u_a4 - u_a6 - 1256 y_a6_proc_0 >= 999998742
 c227: u_a7 - u_a4 - 865 y_a4_proc_1 >= -5025
 c228: u_a4 - u_a7 - 835 y_a7_proc_1 >= 0
 c229: u_a8 - u_a4 - 865 y_a4_proc_1 >= -2513
 c230: u_a8 - u_a4 - 818 y_a4_proc_0 >= -2513
 c231: u_a4 - u_a8 - 590 y_a8_proc_1 >= 0
 c232: u_a4 - u_a8 - 830 y_a8_proc_0 >= 0
 c233: u_a9 - u_a4 - 865 y_a4_proc_1 >= -2513
 c234: u_a9 - u_a4 - 818 y_a4_proc_0 >= -1
 c235: u_a4 - u_a9 - 972 y_a9_proc_1 >= -2512
 c236: u_a4 - u_a9 - 1062 y_a9_proc_0 >= 0
 c237: u_a6 - u_a5 - 816 y_a5_proc_2 >= -1000001256
 c238: u_a6 - u_a5 - 929 y_a5_proc_1 >= -1000001256
 c239: u_a6 - u_a5 - 387 y_a5_proc_0 >= -1000002512
 c240: u_a5 - u_a6 - 118 y_a6_proc_2 >= 999998743
 c241: u_a5 - u_a6 - 998 y_a6_proc_1 >= 999998743
 c242: u_a5 - u_a6 - 1256 y_a6_proc_0 >= 999997487
 c243: u_a7 - u_a5 - 816 y_a5_proc_2 >= -1
 c244: u_a7 - u_a5 - 929 y_a5_proc_1 >= -2513
 c245: u_a5 - u_a7 - 595 y_a7_proc_2 >= 0
 c246: u_a5 - u_a7 - 835 y_a7_proc_1 >= -2512
 c247: u_a8 - u_a5 - 816 y_a5_proc_2 >= -2513
 c248: u_a8 - u_a5 - 929 y_a5_proc_1 >= -2513
 c249: u_a8 - u_a5 - 387 y_a5_proc_0 >= -3769
 c250: u_a5 - u_a8 - 987 y_a8_proc_2 >= 0
 c251: u_a5 - u_a8 - 590 y_a8_proc_1 >= 0
 c252: u_a5 - u_a8 - 830 y_a8_proc_0 >= -1256
 c253: u_a9 - u_a5 - 929 y_a5_proc_1 >= -3769
 c254: u_a9 - u_a5 - 387 y_a5_proc_0 >= -2513
 c255: u_a5 - u_a9 - 972 y_a9_proc_1 >= -1256
 c256: u_a5 - u_a9 - 1062 y_a9_proc_0 >= 0
 c257: u_a7 - u_a6 - 118 y_a6_proc_2 >= 999996230
 c258: u_a7 - u_a6 - 998 y_a6_proc_1 >= 999996230
 c259: u_a6 - u_a7 - 595 y_a7_proc_2 >= -999998743
 c260: u_a6 - u_a7 - 835 y_a7_proc_1 >= -999998743
 c261: u_a8 - u_a6 - 118 y_a6_proc_2 >= 999996230
 c262: u_a8 - u_a6 - 998 y_a6_proc_1 >= 999998742
 c263: u_a8 - u_a6 - 1256 y_a6_proc_0 >= 999996230
 c264: u_a6 - u_a8 - 987 y_a8_proc_2 >= -1000001255
 c265: u_a6 - u_a8 - 590 y_a8_proc_1 >= -999998743
 c266: u_a6 - u_a8 - 830 y_a8_proc_0 >= -1000001255
 c267: u_a9 - u_a6 - 998 y_a6_proc_1 >= 999996230
 c268: u_a9 - u_a6 - 1256 y_a6_proc_0 >= 999996230
 c269: u_a6 - u_a9 - 972 y_a9_proc_1 >= -999998743
 c270: u_a6 - u_a9 - 1062 y_a9_proc_0 >= -999998743
 c271: u_a8 - u_a7 - 595 y_a7_proc_2 >= -2512
 c272: u_a8 - u_a7 - 835 y_a7_proc_1 >= -2512
 c273: u_a7 - u_a8 - 987 y_a8_proc_2 >= -1
 c274: u_a7 - u_a8 - 590 y_a8_proc_1 >= -1
 c275: u_a9 - u_a7 - 835 y_a7_proc_1 >= -5024
 c276: u_a7 - u_a9 - 972 y_a9_proc_1 >= -1
 c277: u_a9 - u_a8 - 590 y_a8_proc_1 >= -2513
 c278: u_a9 - u_a8 - 830 y_a8_proc_0 >= -2513
 c279: u_a8 - u_a9 - 972 y_a9_proc_1 >= 0
 c280: u_a8 - u_a9 - 1062 y_a9_proc_0 >= 0

Bounds
End
