benchmark/results/graph__10-1000-0.10-03_10/error_log/graph__10-1000-0.10-03_10_Quinton_Benders_primal_sub_ERRORLOG.txt
solution for: Quinton Benders_primal_sub
objective: 0.000179179
status: OPTIMAL_SOLUTION(2)
u_a0=999998743.584
u_a1=999998743.367
u_a2=999998743.179
u_a3=999998743.960
u_a4=999998742.813
u_a5=999998743.179
u_a7=999998742.325
u_a8=999998742.707
u_a9=999998742.432
tau=0.000
y_a0_proc_1=0.000
y_a1_proc_1=0.000
y_a2_proc_0=0.000
y_a3_proc_2=0.000
y_a4_proc_0=0.000
y_a5_proc_2=0.000
y_a6_proc_1=0.000
y_a7_proc_2=0.000
y_a8_proc_1=0.000
y_a9_proc_0=0.000
